JulietBench/Juliet_Based_Patch_Bench/FFmpeg/CWE-189-Numeric-Errors/CVE_2015_8364_df91aa034b82b77a3c4e01791f4a2b2ff6c82066/solverff_ivi_init_planes_Snippet_patch2.smt2
; benchmark generated from python API
(set-info :status unknown)
(declare-fun R () (_ BitVec 32))
(declare-fun rdi () (_ BitVec 64))
(declare-fun rsi () (_ BitVec 64))
(assert
 (let (($x31 (and (distinct (_ bv0 32) R) true)))
 (let (($x23 (= (_ bv3199971767 32) R)))
 (let ((?x14 ((_ extract 15 0) rdi)))
 (let (($x20 (= (_ bv0 16) ?x14)))
 (let (($x22 (and $x20 $x23)))
 (let (($x46 (and (distinct (_ bv0 16) ?x14) true)))
 (let ((?x15 ((_ extract 15 0) rsi)))
 (let (($x58 (= (_ bv0 16) ?x15)))
 (let (($x74 (and $x58 $x46 $x23)))
 (let (($x70 (= (_ bv0 32) R)))
 (let (($x62 (and (distinct (_ bv0 16) ?x15) true)))
 (let (($x65 (and $x62 $x46 $x70)))
 (let (($x37 (or $x65 $x74 $x22)))
 (let (($x38 (not $x37)))
 (let (($x28 (and $x38 $x31)))
 (let (($x36 (and $x37 $x70)))
 (let (($x66 (or $x36 $x28)))
 (not $x66)))))))))))))))))))
(check-sat)
